
Gurobi 6.0.2 (win64) logging started 06/02/15 11:51:49

Read LP format model from file C:\MT\repository\VRPTWMS\instances\mip\toCalculate\DK_Instance2_h875_No_1.lp
Reading time = 0.02 seconds
(null): 521 rows, 287 columns, 2243 nonzeros
Optimize a model with 521 rows, 287 columns and 2243 nonzeros
Model has 1100 quadratic constraints
WARNING: Only barrier available for SOCP models
Coefficient statistics:
  Matrix range    [1e+00, 2e+02]
  Objective range [1e+00, 1e+02]
  Bounds range    [1e+00, 1e+02]
  RHS range       [1e+00, 2e+02]
Presolve removed 47 rows and 38 columns
Presolve time: 0.08s
Presolved: 2368 rows, 1225 columns, 11747 nonzeros
Variable types: 898 continuous, 327 integer (284 binary)
Found heuristic solution: objective 553.3500000
Optimize a model with 2368 rows, 1225 columns and 11747 nonzeros
Coefficient statistics:
  Matrix range    [1e+00, 2e+02]
  Objective range [1e+00, 1e+02]
  Bounds range    [5e-01, 1e+02]
  RHS range       [1e+00, 1e+02]

Concurrent LP optimizer: dual simplex and barrier
Showing barrier log only...

Presolve removed 186 rows and 121 columns
Presolved: 2182 rows, 1104 columns, 10904 nonzeros

Root barrier log...

Ordering time: 0.01s

Barrier performed 0 iterations in 0.12 seconds
Barrier solve interrupted - model solved by another algorithm


Solved with dual simplex
Solved in 108 iterations and 0.12 seconds
Optimal objective  2.761965276e+01

Root relaxation: objective 2.761965e+01, 108 iterations, 0.03 seconds

    Nodes    |    Current Node    |     Objective Bounds      |     Work
 Expl Unexpl |  Obj  Depth IntInf | Incumbent    BestBd   Gap | It/Node Time

     0     0   27.61965    0   48  553.35000   27.61965  95.0%     -    0s
     0     0   49.51704    0   73  553.35000   49.51704  91.1%     -    0s
     0     0   68.16700    0   51  553.35000   68.16700  87.7%     -    0s
     0     0   68.83000    0   59  553.35000   68.83000  87.6%     -    0s
     0     0   70.21971    0   64  553.35000   70.21971  87.3%     -    0s
     0     0   71.06818    0   65  553.35000   71.06818  87.2%     -    0s
     0     0   71.94694    0   69  553.35000   71.94694  87.0%     -    0s
     0     0   76.39704    0   69  553.35000   76.39704  86.2%     -    0s
     0     0   76.49877    0   69  553.35000   76.49877  86.2%     -    0s
     0     0   76.84579    0   70  553.35000   76.84579  86.1%     -    0s
     0     0   77.00136    0   77  553.35000   77.00136  86.1%     -    0s
     0     0   77.00136    0   77  553.35000   77.00136  86.1%     -    0s
     0     0   77.00136    0   69  553.35000   77.00136  86.1%     -    0s
     0     0   77.00136    0   65  553.35000   77.00136  86.1%     -    0s
     0     0   77.00136    0   67  553.35000   77.00136  86.1%     -    0s
     0     0   77.00136    0   66  553.35000   77.00136  86.1%     -    0s
     0     2   77.00136    0   64  553.35000   77.00136  86.1%     -    0s
H  830   453                     549.3900000  135.68470  75.3%  36.2    3s
  1124   528 infeasible   44       549.39000  138.23003  74.8%  43.6    5s
  2509   924  452.88460   32   29  549.39000  148.72322  72.9%  49.6   10s
H 2737  1017                     549.2400000  155.77268  71.6%  49.9   11s
  3875  1619  392.28856   43   51  549.24000  166.76212  69.6%  51.0   15s
  5407  2382  359.97057   33   59  549.24000  175.03265  68.1%  52.0   20s
  6318  2729  362.25943   38   79  549.24000  181.96618  66.9%  54.4   25s
  7258  3011     cutoff   45       549.24000  190.98834  65.2%  56.9   30s
  8729  3425  358.18053   26   38  549.24000  204.14826  62.8%  59.2   35s
  9944  3728     cutoff   27       549.24000  215.89594  60.7%  60.2   40s
 11329  4144  410.93246   23   47  549.24000  234.85248  57.2%  61.0   45s
 13523  5117 infeasible   34       549.24000  240.07703  56.3%  58.3   50s
 14753  5624  369.55506   35   66  549.24000  241.33173  56.1%  57.5   56s
 14764  5631  459.24194   39   66  549.24000  241.33173  56.1%  57.4   60s
 14775  5639  243.50430   31   83  549.24000  241.33173  56.1%  57.4   65s
 14784  5645  459.24194   39  109  549.24000  241.33173  56.1%  57.4   70s
 14792  5650  323.84937   19  112  549.24000  241.33173  56.1%  57.3   75s
 14801  5656  250.15744   33  100  549.24000  241.33173  56.1%  57.3   80s
 14810  5662  379.72060   30  130  549.24000  241.33173  56.1%  57.3   85s
 14820  5669  244.20068   30  149  549.24000  241.33173  56.1%  57.2   90s
 14828  5674  254.91639   41  144  549.24000  241.33173  56.1%  57.2   95s
 14836  5679  307.79476   46  145  549.24000  241.33173  56.1%  57.2  100s
 14845  5685  254.90500   26  137  549.24000  241.33173  56.1%  57.1  105s
 14854  5691  410.80560   39  144  549.24000  241.33173  56.1%  57.1  110s
 14906  5722  355.96314   35   28  549.24000  241.33173  56.1%  58.5  115s
 15597  5855  455.53327   49   26  549.24000  241.33173  56.1%  59.2  120s
H16384  5546                     454.1500000  241.33173  46.9%  59.6  123s
 16533  5528     cutoff   45       454.15000  241.33173  46.9%  59.8  125s
 17488  5477  250.01263   36   42  454.15000  241.33173  46.9%  60.1  130s
 19118  5262     cutoff   42       454.15000  242.01738  46.7%  61.4  135s
 20232  5078     cutoff   42       454.15000  244.73812  46.1%  62.6  140s
 21661  4822  376.75612   43   39  454.15000  248.85372  45.2%  64.0  146s
 22664  4517  363.52689   38   80  454.15000  251.65162  44.6%  64.9  150s
 23752  4216  328.67444   41   80  454.15000  254.42864  44.0%  65.9  156s
 24788  3945  256.83110   50   66  454.15000  256.46278  43.5%  66.9  160s
 25674  3612     cutoff   48       454.15000  259.11054  42.9%  67.7  165s
 26789  3162     cutoff   43       454.15000  262.93416  42.1%  68.6  170s
 28074  2704  269.12694   47   70  454.15000  269.12694  40.7%  69.1  175s
 29243  2282  318.52416   49   72  454.15000  281.31838  38.1%  69.6  180s
 30586  1814  339.06172   39   30  454.15000  308.51626  32.1%  69.7  185s
 32167  1698  374.57119   37   32  454.15000  341.67548  24.8%  69.5  190s
 33914  1802  344.04698   40   25  454.15000  344.04698  24.2%  69.3  195s
 35269  1790  345.77642   41   43  454.15000  345.77642  23.9%  69.3  200s
 37279  1691  349.73398   46   46  454.15000  348.48410  23.3%  69.0  205s
 38939  1455     cutoff   42       454.15000  351.31869  22.6%  68.9  210s
 40537  1100     cutoff   45       454.15000  354.93589  21.8%  68.8  215s
 42007   557     cutoff   55       454.15000  367.15286  19.2%  68.9  220s

Cutting planes:
  Gomory: 6
  Cover: 3
  Implied bound: 50
  Clique: 18
  MIR: 7
  Flow cover: 21
  GUB cover: 9
  Zero half: 35

Explored 43351 nodes (2944022 simplex iterations) in 222.65 seconds
Thread count was 2 (of 4 available processors)

Optimal solution found (tolerance 1.00e-04)
Best objective 4.541500000000e+02, best bound 4.541500000000e+02, gap 0.0%
k_c1	15.0
k_c10	15.0
k_c2	8.0
k_c3	3.0
k_c4	3.0
k_c5	11.0
k_c6	9.0
k_c7	13.0
k_c8	4.0
k_c9	15.0
k_dN	0.0
o_1	0.0
o_10	1.0
o_2	0.0
o_3	0.0
o_4	1.0
o_5	0.0
o_6	0.0
o_7	0.0
o_8	0.0
o_9	0.0
p_1	0.0
p_10	1.0
p_2	0.0
p_3	0.0
p_4	1.0
p_5	0.0
p_6	0.0
p_7	0.0
p_8	0.0
p_9	0.0
phi_c1	74.0
phi_c10	0.0
phi_c2	37.0
phi_c3	16.0
phi_c4	0.0
phi_c5	50.0
phi_c6	50.0
phi_c7	56.0
phi_c8	23.0
phi_c9	64.0
phi_dN	0.0
tauD_c1	15.0
tauD_c10	25.0
tauD_c2	60.0
tauD_c3	110.0
tauD_c4	77.0
tauD_c5	43.0
tauD_c6	69.0
tauD_c7	44.0
tauD_c8	90.0
tauD_c9	30.0
tauD_d0	0.0
tauD_dN	120.0
tauS_c1	71.0
tauS_c10	25.0
tauS_c2	21.0
tauS_c3	0.0
tauS_c4	40.0
tauS_c5	21.0
tauS_c6	23.0
tauS_c7	34.0
tauS_c8	96.0
tauS_c9	20.0
tauS_d0	0.0
tauS_dN	113.0
x_c10_c1	0.0
x_c10_c2	0.0
x_c10_c3	0.0
x_c10_c4	0.0
x_c10_c5	0.0
x_c10_c6	1.0
x_c10_c7	0.0
x_c10_c8	0.0
x_c10_c9	0.0
x_c10_dN	0.0
x_c1_c10	0.0
x_c1_c2	0.0
x_c1_c3	0.0
x_c1_c4	0.0
x_c1_c5	0.0
x_c1_c6	0.0
x_c1_c7	1.0
x_c1_c8	0.0
x_c1_c9	0.0
x_c1_dN	0.0
x_c2_c1	0.0
x_c2_c10	0.0
x_c2_c3	1.0
x_c2_c4	0.0
x_c2_c5	0.0
x_c2_c6	0.0
x_c2_c7	0.0
x_c2_c8	0.0
x_c2_c9	0.0
x_c2_dN	0.0
x_c3_c1	0.0
x_c3_c10	0.0
x_c3_c2	0.0
x_c3_c4	0.0
x_c3_c5	0.0
x_c3_c6	0.0
x_c3_c7	0.0
x_c3_c8	0.0
x_c3_c9	0.0
x_c3_dN	1.0
x_c4_c1	0.0
x_c4_c10	0.0
x_c4_c2	0.0
x_c4_c3	0.0
x_c4_c5	0.0
x_c4_c6	0.0
x_c4_c7	0.0
x_c4_c8	0.0
x_c4_c9	0.0
x_c4_dN	1.0
x_c5_c1	0.0
x_c5_c10	0.0
x_c5_c2	0.0
x_c5_c3	0.0
x_c5_c4	1.0
x_c5_c6	0.0
x_c5_c7	0.0
x_c5_c8	0.0
x_c5_c9	0.0
x_c5_dN	0.0
x_c6_c1	0.0
x_c6_c10	0.0
x_c6_c2	0.0
x_c6_c3	0.0
x_c6_c4	0.0
x_c6_c5	0.0
x_c6_c7	0.0
x_c6_c8	1.0
x_c6_c9	0.0
x_c6_dN	0.0
x_c7_c1	0.0
x_c7_c10	0.0
x_c7_c2	1.0
x_c7_c3	0.0
x_c7_c4	0.0
x_c7_c5	0.0
x_c7_c6	0.0
x_c7_c8	0.0
x_c7_c9	0.0
x_c7_dN	0.0
x_c8_c1	0.0
x_c8_c10	0.0
x_c8_c2	0.0
x_c8_c3	0.0
x_c8_c4	0.0
x_c8_c5	0.0
x_c8_c6	0.0
x_c8_c7	0.0
x_c8_c9	0.0
x_c8_dN	1.0
x_c9_c1	0.0
x_c9_c10	0.0
x_c9_c2	0.0
x_c9_c3	0.0
x_c9_c4	0.0
x_c9_c5	1.0
x_c9_c6	0.0
x_c9_c7	0.0
x_c9_c8	0.0
x_c9_dN	0.0
x_d0_c1	1.0
x_d0_c10	1.0
x_d0_c2	0.0
x_d0_c3	0.0
x_d0_c4	0.0
x_d0_c5	0.0
x_d0_c6	0.0
x_d0_c7	0.0
x_d0_c8	0.0
x_d0_c9	1.0
z_c10_c1	0.0
z_c10_c2	0.0
z_c10_c3	0.0
z_c10_c4	1.0
z_c10_c5	0.0
z_c10_c6	0.0
z_c10_c7	0.0
z_c10_c8	0.0
z_c10_c9	0.0
z_c10_dN	0.0
z_c1_c10	0.0
z_c1_c2	0.0
z_c1_c3	0.0
z_c1_c4	0.0
z_c1_c5	0.0
z_c1_c6	0.0
z_c1_c7	0.0
z_c1_c8	0.0
z_c1_c9	0.0
z_c1_dN	0.0
z_c2_c1	0.0
z_c2_c10	0.0
z_c2_c3	0.0
z_c2_c4	0.0
z_c2_c5	0.0
z_c2_c6	0.0
z_c2_c7	0.0
z_c2_c8	0.0
z_c2_c9	0.0
z_c2_dN	0.0
z_c3_c1	0.0
z_c3_c10	0.0
z_c3_c2	0.0
z_c3_c4	0.0
z_c3_c5	0.0
z_c3_c6	0.0
z_c3_c7	0.0
z_c3_c8	0.0
z_c3_c9	0.0
z_c3_dN	0.0
z_c4_c1	0.0
z_c4_c10	0.0
z_c4_c2	0.0
z_c4_c3	0.0
z_c4_c5	0.0
z_c4_c6	0.0
z_c4_c7	0.0
z_c4_c8	0.0
z_c4_c9	0.0
z_c4_dN	1.0
z_c5_c1	0.0
z_c5_c10	0.0
z_c5_c2	0.0
z_c5_c3	0.0
z_c5_c4	0.0
z_c5_c6	0.0
z_c5_c7	0.0
z_c5_c8	0.0
z_c5_c9	0.0
z_c5_dN	0.0
z_c6_c1	0.0
z_c6_c10	0.0
z_c6_c2	0.0
z_c6_c3	0.0
z_c6_c4	0.0
z_c6_c5	0.0
z_c6_c7	0.0
z_c6_c8	0.0
z_c6_c9	0.0
z_c6_dN	0.0
z_c7_c1	0.0
z_c7_c10	0.0
z_c7_c2	0.0
z_c7_c3	0.0
z_c7_c4	0.0
z_c7_c5	0.0
z_c7_c6	0.0
z_c7_c8	0.0
z_c7_c9	0.0
z_c7_dN	0.0
z_c8_c1	0.0
z_c8_c10	0.0
z_c8_c2	0.0
z_c8_c3	0.0
z_c8_c4	0.0
z_c8_c5	0.0
z_c8_c6	0.0
z_c8_c7	0.0
z_c8_c9	0.0
z_c8_dN	0.0
z_c9_c1	0.0
z_c9_c10	0.0
z_c9_c2	0.0
z_c9_c3	0.0
z_c9_c4	0.0
z_c9_c5	0.0
z_c9_c6	0.0
z_c9_c7	0.0
z_c9_c8	0.0
z_c9_dN	0.0
z_d0_c1	0.0
z_d0_c10	1.0
z_d0_c2	0.0
z_d0_c3	0.0
z_d0_c4	0.0
z_d0_c5	0.0
z_d0_c6	0.0
z_d0_c7	0.0
z_d0_c8	0.0
z_d0_c9	0.0
z_d0_dN	0.0
